NAME: ACTUAL_TOURS/amz0301
TYPE: TOUR
COMMENT: RouteID_200bf86f-b9ab-4e6e-91e1-da7e8e4ad46c
DIMENSION: 166
TOUR_SECTION
20
135
139
25
84
155
18
85
17
145
143
122
131
129
88
13
94
10
76
151
98
126
1
77
41
128
48
60
71
57
43
117
55
134
75
6
47
51
91
86
81
89
114
31
15
68
100
113
142
140
110
111
159
82
92
50
29
26
96
22
19
66
125
44
11
95
9
33
14
62
157
38
97
3
133
137
39
109
158
153
58
23
53
148
116
63
123
101
52
59
136
42
56
124
28
67
46
102
49
165
119
61
141
132
80
37
35
40
32
154
162
93
105
138
2
120
83
4
45
147
107
8
54
5
70
90
108
79
7
64
16
103
163
144
24
99
121
74
112
27
73
150
65
161
78
87
152
21
30
106
34
164
156
166
130
104
115
118
12
149
146
69
72
160
127
36
-1
EOF
